448,173
576,261
765,490
823,360
947,213
771,406
625,761
732,731
382,818
356,457
427,152
474,374
533,429
254,623
441,528
468,514
596,433
653,415
738,388
702,427
705,423
699,524
658,554
789,619
999,724
894,514
769,527
956,681
482,342
760,-97
